p cnf 271 995
4 5 6 7 0
8 9 10 11 0
12 13 14 15 0
16 17 18 19 0
20 21 22 23 0
24 25 26 27 0
28 29 30 31 0
32 33 34 35 0
36 37 38 39 0
40 41 42 43 0
44 45 46 47 0
48 49 50 51 0
52 53 54 55 0
56 57 58 59 0
60 61 62 63 0
64 65 66 67 0
68 69 70 71 0
72 73 74 75 0
76 77 78 79 0
80 81 82 83 0
84 85 86 87 0
88 89 90 91 0
92 93 94 95 0
96 97 98 99 0
100 101 102 103 0
104 105 106 107 0
108 109 110 111 0
112 113 114 115 0
116 117 118 119 0
120 121 122 123 0
124 125 126 127 0
128 129 130 131 0
132 133 134 135 0
136 137 138 139 0
140 141 142 143 0
144 145 146 147 0
148 149 150 151 0
152 153 154 155 0
156 157 158 159 0
160 161 162 163 0
164 165 166 167 0
168 169 170 171 0
172 173 174 175 0
176 177 178 179 0
180 181 182 183 0
184 185 186 187 0
188 189 190 191 0
192 193 194 195 0
196 197 198 199 0
200 201 202 203 0
204 205 206 207 0
208 209 210 211 0
212 213 214 215 0
216 217 218 219 0
220 221 222 223 0
224 225 226 227 0
228 229 230 231 0
232 233 234 235 0
236 237 238 239 0
240 241 242 243 0
244 245 246 247 0
248 249 250 251 0
252 253 254 255 0
256 257 258 259 0
260 261 262 263 0
264 265 266 267 0
268 269 270 271 0
-4 -132 0
-5 -133 0
-6 -134 0
-7 -135 0
-4 -8 0
-5 -9 0
-6 -10 0
-7 -11 0
-4 -16 0
-5 -17 0
-6 -18 0
-7 -19 0
-4 -36 0
-5 -37 0
-6 -38 0
-7 -39 0
-4 -44 0
-5 -45 0
-6 -46 0
-7 -47 0
-4 -96 0
-5 -97 0
-6 -98 0
-7 -99 0
-4 -104 0
-5 -105 0
-6 -106 0
-7 -107 0
-4 -124 0
-5 -125 0
-6 -126 0
-7 -127 0
-8 -128 0
-9 -129 0
-10 -130 0
-11 -131 0
-8 -12 0
-9 -13 0
-10 -14 0
-11 -15 0
-8 -32 0
-9 -33 0
-10 -34 0
-11 -35 0
-8 -40 0
-9 -41 0
-10 -42 0
-11 -43 0
-8 -92 0
-9 -93 0
-10 -94 0
-11 -95 0
-8 -100 0
-9 -101 0
-10 -102 0
-11 -103 0
-8 -120 0
-9 -121 0
-10 -122 0
-11 -123 0
-12 -140 0
-13 -141 0
-14 -142 0
-15 -143 0
-12 -24 0
-13 -25 0
-14 -26 0
-15 -27 0
-12 -36 0
-13 -37 0
-14 -38 0
-15 -39 0
-12 -52 0
-13 -53 0
-14 -54 0
-15 -55 0
-12 -96 0
-13 -97 0
-14 -98 0
-15 -99 0
-12 -112 0
-13 -113 0
-14 -114 0
-15 -115 0
-12 -124 0
-13 -125 0
-14 -126 0
-15 -127 0
-16 -136 0
-17 -137 0
-18 -138 0
-19 -139 0
-16 -20 0
-17 -21 0
-18 -22 0
-19 -23 0
-16 -32 0
-17 -33 0
-18 -34 0
-19 -35 0
-16 -48 0
-17 -49 0
-18 -50 0
-19 -51 0
-16 -92 0
-17 -93 0
-18 -94 0
-19 -95 0
-16 -108 0
-17 -109 0
-18 -110 0
-19 -111 0
-16 -120 0
-17 -121 0
-18 -122 0
-19 -123 0
-20 -132 0
-21 -133 0
-22 -134 0
-23 -135 0
-20 -144 0
-21 -145 0
-22 -146 0
-23 -147 0
-20 -28 0
-21 -29 0
-22 -30 0
-23 -31 0
-20 -44 0
-21 -45 0
-22 -46 0
-23 -47 0
-20 -56 0
-21 -57 0
-22 -58 0
-23 -59 0
-20 -104 0
-21 -105 0
-22 -106 0
-23 -107 0
-20 -116 0
-21 -117 0
-22 -118 0
-23 -119 0
-24 -128 0
-25 -129 0
-26 -130 0
-27 -131 0
-24 -144 0
-25 -145 0
-26 -146 0
-27 -147 0
-24 -28 0
-25 -29 0
-26 -30 0
-27 -31 0
-24 -40 0
-25 -41 0
-26 -42 0
-27 -43 0
-24 -56 0
-25 -57 0
-26 -58 0
-27 -59 0
-24 -100 0
-25 -101 0
-26 -102 0
-27 -103 0
-24 -116 0
-25 -117 0
-26 -118 0
-27 -119 0
-28 -136 0
-29 -137 0
-30 -138 0
-31 -139 0
-28 -140 0
-29 -141 0
-30 -142 0
-31 -143 0
-28 -48 0
-29 -49 0
-30 -50 0
-31 -51 0
-28 -52 0
-29 -53 0
-30 -54 0
-31 -55 0
-28 -108 0
-29 -109 0
-30 -110 0
-31 -111 0
-28 -112 0
-29 -113 0
-30 -114 0
-31 -115 0
-32 -152 0
-33 -153 0
-34 -154 0
-35 -155 0
-32 -160 0
-33 -161 0
-34 -162 0
-35 -163 0
-32 -64 0
-33 -65 0
-34 -66 0
-35 -67 0
-32 -72 0
-33 -73 0
-34 -74 0
-35 -75 0
-32 -96 0
-33 -97 0
-34 -98 0
-35 -99 0
-32 -104 0
-33 -105 0
-34 -106 0
-35 -107 0
-36 -148 0
-37 -149 0
-38 -150 0
-39 -151 0
-36 -156 0
-37 -157 0
-38 -158 0
-39 -159 0
-36 -60 0
-37 -61 0
-38 -62 0
-39 -63 0
-36 -68 0
-37 -69 0
-38 -70 0
-39 -71 0
-36 -92 0
-37 -93 0
-38 -94 0
-39 -95 0
-36 -100 0
-37 -101 0
-38 -102 0
-39 -103 0
-40 -152 0
-41 -153 0
-42 -154 0
-43 -155 0
-40 -168 0
-41 -169 0
-42 -170 0
-43 -171 0
-40 -64 0
-41 -65 0
-42 -66 0
-43 -67 0
-40 -80 0
-41 -81 0
-42 -82 0
-43 -83 0
-40 -96 0
-41 -97 0
-42 -98 0
-43 -99 0
-40 -112 0
-41 -113 0
-42 -114 0
-43 -115 0
-44 -148 0
-45 -149 0
-46 -150 0
-47 -151 0
-44 -164 0
-45 -165 0
-46 -166 0
-47 -167 0
-44 -60 0
-45 -61 0
-46 -62 0
-47 -63 0
-44 -76 0
-45 -77 0
-46 -78 0
-47 -79 0
-44 -92 0
-45 -93 0
-46 -94 0
-47 -95 0
-44 -108 0
-45 -109 0
-46 -110 0
-47 -111 0
-48 -160 0
-49 -161 0
-50 -162 0
-51 -163 0
-48 -172 0
-49 -173 0
-50 -174 0
-51 -175 0
-48 -72 0
-49 -73 0
-50 -74 0
-51 -75 0
-48 -84 0
-49 -85 0
-50 -86 0
-51 -87 0
-48 -104 0
-49 -105 0
-50 -106 0
-51 -107 0
-48 -116 0
-49 -117 0
-50 -118 0
-51 -119 0
-52 -156 0
-53 -157 0
-54 -158 0
-55 -159 0
-52 -172 0
-53 -173 0
-54 -174 0
-55 -175 0
-52 -68 0
-53 -69 0
-54 -70 0
-55 -71 0
-52 -84 0
-53 -85 0
-54 -86 0
-55 -87 0
-52 -100 0
-53 -101 0
-54 -102 0
-55 -103 0
-52 -116 0
-53 -117 0
-54 -118 0
-55 -119 0
-56 -164 0
-57 -165 0
-58 -166 0
-59 -167 0
-56 -168 0
-57 -169 0
-58 -170 0
-59 -171 0
-56 -76 0
-57 -77 0
-58 -78 0
-59 -79 0
-56 -80 0
-57 -81 0
-58 -82 0
-59 -83 0
-56 -108 0
-57 -109 0
-58 -110 0
-59 -111 0
-56 -112 0
-57 -113 0
-58 -114 0
-59 -115 0
-60 -132 0
-61 -133 0
-62 -134 0
-63 -135 0
-60 -176 0
-61 -177 0
-62 -178 0
-63 -179 0
-60 -88 0
-61 -89 0
-62 -90 0
-63 -91 0
-60 -124 0
-61 -125 0
-62 -126 0
-63 -127 0
-64 -128 0
-65 -129 0
-66 -130 0
-67 -131 0
-64 -176 0
-65 -177 0
-66 -178 0
-67 -179 0
-64 -88 0
-65 -89 0
-66 -90 0
-67 -91 0
-64 -120 0
-65 -121 0
-66 -122 0
-67 -123 0
-68 -140 0
-69 -141 0
-70 -142 0
-71 -143 0
-68 -176 0
-69 -177 0
-70 -178 0
-71 -179 0
-68 -88 0
-69 -89 0
-70 -90 0
-71 -91 0
-68 -124 0
-69 -125 0
-70 -126 0
-71 -127 0
-72 -136 0
-73 -137 0
-74 -138 0
-75 -139 0
-72 -176 0
-73 -177 0
-74 -178 0
-75 -179 0
-72 -88 0
-73 -89 0
-74 -90 0
-75 -91 0
-72 -120 0
-73 -121 0
-74 -122 0
-75 -123 0
-76 -132 0
-77 -133 0
-78 -134 0
-79 -135 0
-76 -144 0
-77 -145 0
-78 -146 0
-79 -147 0
-76 -176 0
-77 -177 0
-78 -178 0
-79 -179 0
-76 -88 0
-77 -89 0
-78 -90 0
-79 -91 0
-80 -128 0
-81 -129 0
-82 -130 0
-83 -131 0
-80 -144 0
-81 -145 0
-82 -146 0
-83 -147 0
-80 -176 0
-81 -177 0
-82 -178 0
-83 -179 0
-80 -88 0
-81 -89 0
-82 -90 0
-83 -91 0
-84 -136 0
-85 -137 0
-86 -138 0
-87 -139 0
-84 -140 0
-85 -141 0
-86 -142 0
-87 -143 0
-84 -176 0
-85 -177 0
-86 -178 0
-87 -179 0
-84 -88 0
-85 -89 0
-86 -90 0
-87 -91 0
-88 -148 0
-89 -149 0
-90 -150 0
-91 -151 0
-88 -152 0
-89 -153 0
-90 -154 0
-91 -155 0
-88 -156 0
-89 -157 0
-90 -158 0
-91 -159 0
-88 -160 0
-89 -161 0
-90 -162 0
-91 -163 0
-88 -164 0
-89 -165 0
-90 -166 0
-91 -167 0
-88 -168 0
-89 -169 0
-90 -170 0
-91 -171 0
-88 -172 0
-89 -173 0
-90 -174 0
-91 -175 0
-92 -184 0
-93 -185 0
-94 -186 0
-95 -187 0
-92 -192 0
-93 -193 0
-94 -194 0
-95 -195 0
-92 -212 0
-93 -213 0
-94 -214 0
-95 -215 0
-92 -220 0
-93 -221 0
-94 -222 0
-95 -223 0
-96 -180 0
-97 -181 0
-98 -182 0
-99 -183 0
-96 -188 0
-97 -189 0
-98 -190 0
-99 -191 0
-96 -208 0
-97 -209 0
-98 -210 0
-99 -211 0
-96 -216 0
-97 -217 0
-98 -218 0
-99 -219 0
-100 -184 0
-101 -185 0
-102 -186 0
-103 -187 0
-100 -200 0
-101 -201 0
-102 -202 0
-103 -203 0
-100 -212 0
-101 -213 0
-102 -214 0
-103 -215 0
-100 -228 0
-101 -229 0
-102 -230 0
-103 -231 0
-104 -180 0
-105 -181 0
-106 -182 0
-107 -183 0
-104 -196 0
-105 -197 0
-106 -198 0
-107 -199 0
-104 -208 0
-105 -209 0
-106 -210 0
-107 -211 0
-104 -224 0
-105 -225 0
-106 -226 0
-107 -227 0
-108 -192 0
-109 -193 0
-110 -194 0
-111 -195 0
-108 -204 0
-109 -205 0
-110 -206 0
-111 -207 0
-108 -220 0
-109 -221 0
-110 -222 0
-111 -223 0
-108 -232 0
-109 -233 0
-110 -234 0
-111 -235 0
-112 -188 0
-113 -189 0
-114 -190 0
-115 -191 0
-112 -204 0
-113 -205 0
-114 -206 0
-115 -207 0
-112 -216 0
-113 -217 0
-114 -218 0
-115 -219 0
-112 -232 0
-113 -233 0
-114 -234 0
-115 -235 0
-116 -196 0
-117 -197 0
-118 -198 0
-119 -199 0
-116 -200 0
-117 -201 0
-118 -202 0
-119 -203 0
-116 -224 0
-117 -225 0
-118 -226 0
-119 -227 0
-116 -228 0
-117 -229 0
-118 -230 0
-119 -231 0
-120 -184 0
-121 -185 0
-122 -186 0
-123 -187 0
-120 -192 0
-121 -193 0
-122 -194 0
-123 -195 0
-120 -240 0
-121 -241 0
-122 -242 0
-123 -243 0
-120 -248 0
-121 -249 0
-122 -250 0
-123 -251 0
-124 -180 0
-125 -181 0
-126 -182 0
-127 -183 0
-124 -188 0
-125 -189 0
-126 -190 0
-127 -191 0
-124 -236 0
-125 -237 0
-126 -238 0
-127 -239 0
-124 -244 0
-125 -245 0
-126 -246 0
-127 -247 0
-128 -256 0
-129 -257 0
-130 -258 0
-131 -259 0
-128 -184 0
-129 -185 0
-130 -186 0
-131 -187 0
-128 -200 0
-129 -201 0
-130 -202 0
-131 -203 0
-128 -240 0
-129 -241 0
-130 -242 0
-131 -243 0
-132 -180 0
-133 -181 0
-134 -182 0
-135 -183 0
-132 -196 0
-133 -197 0
-134 -198 0
-135 -199 0
-132 -236 0
-133 -237 0
-134 -238 0
-135 -239 0
-132 -252 0
-133 -253 0
-134 -254 0
-135 -255 0
-136 -260 0
-137 -261 0
-138 -262 0
-139 -263 0
-136 -192 0
-137 -193 0
-138 -194 0
-139 -195 0
-136 -204 0
-137 -205 0
-138 -206 0
-139 -207 0
-136 -248 0
-137 -249 0
-138 -250 0
-139 -251 0
-140 -260 0
-141 -261 0
-142 -262 0
-143 -263 0
-140 -188 0
-141 -189 0
-142 -190 0
-143 -191 0
-140 -204 0
-141 -205 0
-142 -206 0
-143 -207 0
-140 -244 0
-141 -245 0
-142 -246 0
-143 -247 0
-144 -256 0
-145 -257 0
-146 -258 0
-147 -259 0
-144 -196 0
-145 -197 0
-146 -198 0
-147 -199 0
-144 -200 0
-145 -201 0
-146 -202 0
-147 -203 0
-144 -252 0
-145 -253 0
-146 -254 0
-147 -255 0
-148 -264 0
-149 -265 0
-150 -266 0
-151 -267 0
-148 -212 0
-149 -213 0
-150 -214 0
-151 -215 0
-148 -220 0
-149 -221 0
-150 -222 0
-151 -223 0
-152 -264 0
-153 -265 0
-154 -266 0
-155 -267 0
-152 -208 0
-153 -209 0
-154 -210 0
-155 -211 0
-152 -216 0
-153 -217 0
-154 -218 0
-155 -219 0
-156 -264 0
-157 -265 0
-158 -266 0
-159 -267 0
-156 -212 0
-157 -213 0
-158 -214 0
-159 -215 0
-156 -228 0
-157 -229 0
-158 -230 0
-159 -231 0
-160 -264 0
-161 -265 0
-162 -266 0
-163 -267 0
-160 -208 0
-161 -209 0
-162 -210 0
-163 -211 0
-160 -224 0
-161 -225 0
-162 -226 0
-163 -227 0
-164 -264 0
-165 -265 0
-166 -266 0
-167 -267 0
-164 -220 0
-165 -221 0
-166 -222 0
-167 -223 0
-164 -232 0
-165 -233 0
-166 -234 0
-167 -235 0
-168 -264 0
-169 -265 0
-170 -266 0
-171 -267 0
-168 -216 0
-169 -217 0
-170 -218 0
-171 -219 0
-168 -232 0
-169 -233 0
-170 -234 0
-171 -235 0
-172 -264 0
-173 -265 0
-174 -266 0
-175 -267 0
-172 -224 0
-173 -225 0
-174 -226 0
-175 -227 0
-172 -228 0
-173 -229 0
-174 -230 0
-175 -231 0
-176 -256 0
-177 -257 0
-178 -258 0
-179 -259 0
-176 -260 0
-177 -261 0
-178 -262 0
-179 -263 0
-176 -236 0
-177 -237 0
-178 -238 0
-179 -239 0
-176 -240 0
-177 -241 0
-178 -242 0
-179 -243 0
-176 -244 0
-177 -245 0
-178 -246 0
-179 -247 0
-176 -248 0
-177 -249 0
-178 -250 0
-179 -251 0
-176 -252 0
-177 -253 0
-178 -254 0
-179 -255 0
-180 -268 0
-181 -269 0
-182 -270 0
-183 -271 0
-184 -268 0
-185 -269 0
-186 -270 0
-187 -271 0
-188 -268 0
-189 -269 0
-190 -270 0
-191 -271 0
-192 -268 0
-193 -269 0
-194 -270 0
-195 -271 0
-196 -268 0
-197 -269 0
-198 -270 0
-199 -271 0
-200 -268 0
-201 -269 0
-202 -270 0
-203 -271 0
-204 -268 0
-205 -269 0
-206 -270 0
-207 -271 0
-208 -268 0
-209 -269 0
-210 -270 0
-211 -271 0
-212 -268 0
-213 -269 0
-214 -270 0
-215 -271 0
-216 -268 0
-217 -269 0
-218 -270 0
-219 -271 0
-220 -268 0
-221 -269 0
-222 -270 0
-223 -271 0
-224 -268 0
-225 -269 0
-226 -270 0
-227 -271 0
-228 -268 0
-229 -269 0
-230 -270 0
-231 -271 0
-232 -268 0
-233 -269 0
-234 -270 0
-235 -271 0
-236 -268 0
-237 -269 0
-238 -270 0
-239 -271 0
-240 -268 0
-241 -269 0
-242 -270 0
-243 -271 0
-244 -268 0
-245 -269 0
-246 -270 0
-247 -271 0
-248 -268 0
-249 -269 0
-250 -270 0
-251 -271 0
-252 -268 0
-253 -269 0
-254 -270 0
-255 -271 0
-256 -268 0
-257 -269 0
-258 -270 0
-259 -271 0
-260 -268 0
-261 -269 0
-262 -270 0
-263 -271 0
-264 -268 0
-265 -269 0
-266 -270 0
-267 -271 0
